NAME          
ROWS
 N  OBJ
 L  c1
 L  c2
 L  c3
COLUMNS
    MARKER    'MARKER'                 'INTORG'
    x[1]      c1        354
    x[1]      c2        160
    x[1]      c3        717
    x[1]      OBJ       -195
    x[2]      c1        931
    x[2]      c2        144
    x[2]      c3        33
    x[2]      OBJ       -3
    x[3]      c1        888
    x[3]      c2        779
    x[3]      c3        83
    x[3]      OBJ       -433
    x[4]      c1        839
    x[4]      c2        718
    x[4]      c3        214
    x[4]      OBJ       -598
    x[5]      c1        468
    x[5]      c2        288
    x[5]      c3        430
    x[5]      OBJ       -860
    x[6]      c1        501
    x[6]      c2        222
    x[6]      c3        631
    x[6]      OBJ       -689
    x[7]      c1        332
    x[7]      c2        223
    x[7]      c3        67
    x[7]      OBJ       -524
    x[8]      c1        536
    x[8]      c2        372
    x[8]      c3        781
    x[8]      OBJ       -431
    x[9]      c1        703
    x[9]      c2        369
    x[9]      c3        531
    x[9]      OBJ       -221
    x[10]     c1        60
    x[10]     c2        32
    x[10]     c3        754
    x[10]     OBJ       -660
    x[11]     c1        442
    x[11]     c2        223
    x[11]     c3        923
    x[11]     OBJ       -627
    x[12]     c1        65
    x[12]     c2        178
    x[12]     c3        239
    x[12]     OBJ       -130
    x[13]     c1        479
    x[13]     c2        177
    x[13]     c3        825
    x[13]     OBJ       -55
    x[14]     c1        733
    x[14]     c2        11
    x[14]     c3        16
    x[14]     OBJ       -610
    x[15]     c1        315
    x[15]     c2        513
    x[15]     c3        387
    x[15]     OBJ       -690
    x[16]     c1        583
    x[16]     c2        502
    x[16]     c3        146
    x[16]     OBJ       -888
    x[17]     c1        669
    x[17]     c2        932
    x[17]     c3        372
    x[17]     OBJ       -836
    x[18]     c1        276
    x[18]     c2        924
    x[18]     c3        859
    x[18]     OBJ       -400
    x[19]     c1        379
    x[19]     c2        801
    x[19]     c3        621
    x[19]     OBJ       -398
    x[20]     c1        18
    x[20]     c2        743
    x[20]     c3        305
    x[20]     OBJ       -920
    x[21]     c1        593
    x[21]     c2        368
    x[21]     c3        840
    x[21]     OBJ       -270
    x[22]     c1        589
    x[22]     c2        662
    x[22]     c3        867
    x[22]     OBJ       -134
    x[23]     c1        785
    x[23]     c2        630
    x[23]     c3        420
    x[23]     OBJ       -596
    x[24]     c1        272
    x[24]     c2        250
    x[24]     c3        955
    x[24]     OBJ       -134
    x[25]     c1        670
    x[25]     c2        188
    x[25]     c3        816
    x[25]     OBJ       -331
    x[26]     c1        431
    x[26]     c2        208
    x[26]     c3        349
    x[26]     OBJ       -307
    x[27]     c1        277
    x[27]     c2        652
    x[27]     c3        360
    x[27]     OBJ       -225
    x[28]     c1        165
    x[28]     c2        137
    x[28]     c3        533
    x[28]     OBJ       -311
    x[29]     c1        697
    x[29]     c2        374
    x[29]     c3        369
    x[29]     OBJ       -798
    x[30]     c1        634
    x[30]     c2        244
    x[30]     c3        802
    x[30]     OBJ       -705
    x[31]     c1        46
    x[31]     c2        306
    x[31]     c3        765
    x[31]     OBJ       -433
    x[32]     c1        80
    x[32]     c2        382
    x[32]     c3        503
    x[32]     OBJ       -306
    x[33]     c1        542
    x[33]     c2        808
    x[33]     c3        610
    x[33]     OBJ       -58
    x[34]     c1        502
    x[34]     c2        594
    x[34]     c3        46
    x[34]     OBJ       -21
    x[35]     c1        987
    x[35]     c2        552
    x[35]     c3        689
    x[35]     OBJ       -61
RHS
    rhs       c1        8420
    rhs       c2        7333
    rhs       c3        8929
RANGES
BOUNDS
 BV bounds    x[1]
 BV bounds    x[2]
 BV bounds    x[3]
 BV bounds    x[4]
 BV bounds    x[5]
 BV bounds    x[6]
 BV bounds    x[7]
 BV bounds    x[8]
 BV bounds    x[9]
 BV bounds    x[10]
 BV bounds    x[11]
 BV bounds    x[12]
 BV bounds    x[13]
 BV bounds    x[14]
 BV bounds    x[15]
 BV bounds    x[16]
 BV bounds    x[17]
 BV bounds    x[18]
 BV bounds    x[19]
 BV bounds    x[20]
 BV bounds    x[21]
 BV bounds    x[22]
 BV bounds    x[23]
 BV bounds    x[24]
 BV bounds    x[25]
 BV bounds    x[26]
 BV bounds    x[27]
 BV bounds    x[28]
 BV bounds    x[29]
 BV bounds    x[30]
 BV bounds    x[31]
 BV bounds    x[32]
 BV bounds    x[33]
 BV bounds    x[34]
 BV bounds    x[35]
ENDATA
